\* Knapsack *\
Maximize
OBJ: 60 vars_0 + 112 vars_1 + 375 vars_10 + 143 vars_11 + 333 vars_12
 + 95 vars_13 + 136 vars_14 + 320 vars_15 + 129 vars_16 + 112 vars_17
 + 208 vars_18 + 286 vars_19 + 117 vars_2 + 249 vars_20 + 335 vars_22
 + 63 vars_23 + 291 vars_24 + 342 vars_25 + 376 vars_26 + 241 vars_27
 + 117 vars_28 + 76 vars_29 + 67 vars_3 + 207 vars_30 + 371 vars_31
 + 166 vars_32 + 171 vars_33 + 202 vars_34 + 49 vars_35 + 84 vars_36
 + 239 vars_37 + 191 vars_38 + 285 vars_39 + 135 vars_4 + 85 vars_40
 + 93 vars_41 + 242 vars_42 + 248 vars_43 + 183 vars_44 + 293 vars_45
 + 32 vars_46 + 203 vars_47 + 202 vars_48 + 274 vars_49 + 119 vars_5
 + 153 vars_50 + 209 vars_51 + 84 vars_52 + 177 vars_53 + 350 vars_54
 + 287 vars_55 + 258 vars_56 + 156 vars_57 + 170 vars_58 + 246 vars_59
 + 64 vars_6 + 199 vars_60 + 222 vars_61 + 358 vars_62 + 264 vars_63
 + 30 vars_64 + 116 vars_65 + 96 vars_66 + 187 vars_67 + 77 vars_68
 + 142 vars_69 + 93 vars_7 + 141 vars_70 + 158 vars_71 + 225 vars_72
 + 151 vars_73 + 112 vars_74 + 337 vars_75 + 223 vars_76 + 122 vars_77
 + 242 vars_78 + 148 vars_79 + 75 vars_8 + 214 vars_80 + 230 vars_81
 + 130 vars_82 + 180 vars_83 + 374 vars_84 + 359 vars_85 + 241 vars_86
 + 289 vars_87 + 144 vars_88 + 253 vars_89 + 163 vars_9 + 200 vars_90
 + 188 vars_91 + 234 vars_92 + 152 vars_93 + 94 vars_94 + 171 vars_95
 + 155 vars_96 + 166 vars_97 + 325 vars_98 + 170 vars_99
Subject To
_C1: 8 vars_0 + 9 vars_1 + 97 vars_10 + 15 vars_11 + 92 vars_12 + 16 vars_13
 + 45 vars_14 + 87 vars_15 + 25 vars_16 + 40 vars_17 + 43 vars_18 + 89 vars_19
 + 8 vars_2 + 59 vars_20 + 13 vars_21 + 80 vars_22 + 12 vars_23 + 89 vars_24
 + 97 vars_25 + 92 vars_26 + 49 vars_27 + 6 vars_28 + 17 vars_29 + 10 vars_3
 + 75 vars_30 + 100 vars_31 + 26 vars_32 + 45 vars_33 + 55 vars_34
 + 10 vars_35 + 10 vars_36 + 69 vars_37 + 57 vars_38 + 84 vars_39 + 9 vars_4
 + 16 vars_40 + 8 vars_41 + 61 vars_42 + 60 vars_43 + 54 vars_44 + 65 vars_45
 + 12 vars_46 + 41 vars_47 + 60 vars_48 + 70 vars_49 + 5 vars_5 + 30 vars_50
 + 63 vars_51 + 17 vars_52 + 46 vars_53 + 91 vars_54 + 82 vars_55 + 70 vars_56
 + 33 vars_57 + 40 vars_58 + 80 vars_59 + 9 vars_6 + 53 vars_60 + 57 vars_61
 + 99 vars_62 + 70 vars_63 + 4 vars_64 + 15 vars_65 + 11 vars_66 + 50 vars_67
 + 14 vars_68 + 30 vars_69 + 4 vars_7 + 23 vars_70 + 21 vars_71 + 54 vars_72
 + 54 vars_73 + 32 vars_74 + 89 vars_75 + 58 vars_76 + 28 vars_77 + 73 vars_78
 + 47 vars_79 + 6 vars_8 + 60 vars_80 + 66 vars_81 + 8 vars_82 + 51 vars_83
 + 92 vars_84 + 92 vars_85 + 42 vars_86 + 84 vars_87 + 27 vars_88 + 75 vars_89
 + 12 vars_9 + 33 vars_90 + 25 vars_91 + 45 vars_92 + 46 vars_93 + 14 vars_94
 + 49 vars_95 + 26 vars_96 + 35 vars_97 + 90 vars_98 + 23 vars_99
 <= 2246.53465347
Binaries
vars_0
vars_1
vars_10
vars_11
vars_12
vars_13
vars_14
vars_15
vars_16
vars_17
vars_18
vars_19
vars_2
vars_20
vars_21
vars_22
vars_23
vars_24
vars_25
vars_26
vars_27
vars_28
vars_29
vars_3
vars_30
vars_31
vars_32
vars_33
vars_34
vars_35
vars_36
vars_37
vars_38
vars_39
vars_4
vars_40
vars_41
vars_42
vars_43
vars_44
vars_45
vars_46
vars_47
vars_48
vars_49
vars_5
vars_50
vars_51
vars_52
vars_53
vars_54
vars_55
vars_56
vars_57
vars_58
vars_59
vars_6
vars_60
vars_61
vars_62
vars_63
vars_64
vars_65
vars_66
vars_67
vars_68
vars_69
vars_7
vars_70
vars_71
vars_72
vars_73
vars_74
vars_75
vars_76
vars_77
vars_78
vars_79
vars_8
vars_80
vars_81
vars_82
vars_83
vars_84
vars_85
vars_86
vars_87
vars_88
vars_89
vars_9
vars_90
vars_91
vars_92
vars_93
vars_94
vars_95
vars_96
vars_97
vars_98
vars_99
End
